data;


param d:= 100;
param r:=5;
param p:=0.600000;
param M:=1000;
param U:=
         1         1       -1.066838e+00
         2         1       -1.019552e+00
         3         1        3.837531e-01
         4         1        1.831341e+00
         5         1        8.096580e-01
         6         1       -1.040096e+00
         7         1        9.128590e-01
         8         1       -8.286641e-01
         9         1       -1.175541e+00
        10         1        1.303063e-01
        11         1        1.195834e-01
        12         1       -8.615049e-01
        13         1        8.050499e-01
        14         1        3.236703e-01
        15         1        3.172416e-01
        16         1       -3.828264e-01
        17         1        9.398137e-01
        18         1       -2.985310e+00
        19         1       -1.905416e-01
        20         1        1.058563e-01
        21         1       -4.157479e-01
        22         1        7.857614e-03
        23         1        1.311820e+00
        24         1        1.901133e-01
        25         1       -6.097476e-01
        26         1       -7.508029e-01
        27         1        1.929430e-01
        28         1        1.151258e+00
        29         1       -6.010109e-01
        30         1       -8.417079e-01
        31         1       -1.525910e+00
        32         1        8.551450e-01
        33         1        6.570695e-01
        34         1       -1.551705e-01
        35         1       -4.335875e-01
        36         1        2.668633e-01
        37         1       -7.114107e-01
        38         1       -1.937356e+00
        39         1       -7.771780e-01
        40         1        2.331790e-01
        41         1        2.238993e+00
        42         1       -1.022123e-01
        43         1       -9.702620e-01
        44         1       -1.241925e+00
        45         1       -7.494119e-01
        46         1        2.482379e+00
        47         1        2.386251e-02
        48         1       -6.628878e-01
        49         1        3.056756e+00
        50         1       -4.223493e-01
        51         1        2.128207e+00
        52         1       -3.086728e-01
        53         1        1.761217e-01
        54         1        6.674359e-01
        55         1       -5.433911e-01
        56         1       -2.077256e+00
        57         1        1.073183e+00
        58         1       -4.909980e-01
        59         1       -2.230644e+00
        60         1        4.498676e-01
        61         1       -4.220807e-01
        62         1        1.023645e-01
        63         1       -3.889341e-01
        64         1        2.527586e-01
        65         1        1.764770e+00
        66         1       -1.183468e+00
        67         1        6.614131e-01
        68         1       -9.777786e-02
        69         1        4.619620e-01
        70         1       -2.449477e+00
        71         1       -1.210993e+00
        72         1        3.997187e-01
        73         1        5.200176e-01
        74         1       -9.108410e-01
        75         1        1.131445e-01
        76         1        8.168860e-02
        77         1        9.901409e-02
        78         1        8.883208e-01
        79         1       -1.021925e+00
        80         1       -3.573462e-01
        81         1        9.033774e-02
        82         1       -2.108205e-01
        83         1        4.842126e-01
        84         1       -1.012422e+00
        85         1       -4.789890e-01
        86         1       -1.642898e+00
        87         1       -9.712514e-01
        88         1       -1.019568e+00
        89         1       -1.544744e+00
        90         1        1.808229e+00
        91         1        9.335748e-02
        92         1        5.731757e-01
        93         1       -1.353194e+00
        94         1        7.479712e-01
        95         1       -1.186956e+00
        96         1       -2.182803e-02
        97         1        7.987220e-01
        98         1       -8.381454e-01
        99         1        1.042192e+00
       100         1        2.887538e-01
         1         2       -1.087605e-01
         2         2        6.553302e-01
         3         2        1.091100e+00
         4         2        3.355206e-01
         5         2       -3.862725e-01
         6         2        1.242853e+00
         7         2        6.475466e-01
         8         2       -8.790316e-01
         9         2       -4.266820e-01
        10         2        1.022071e+00
        11         2        5.504457e-01
        12         2       -1.042610e-01
        13         2        1.922218e+00
        14         2       -6.327704e-02
        15         2        1.045427e+00
        16         2        4.418045e-01
        17         2       -2.854214e+00
        18         2       -6.828141e-01
        19         2        1.033259e+00
        20         2        2.064867e+00
        21         2       -4.101822e-01
        22         2       -6.354699e-02
        23         2       -1.492273e+00
        24         2       -1.445878e+00
        25         2        6.049172e-01
        26         2       -7.835402e-01
        27         2        3.186067e-01
        28         2       -3.180624e-01
        29         2       -3.452499e-01
        30         2       -2.162841e-01
        31         2        1.800585e-01
        32         2       -4.247909e-01
        33         2       -1.495930e+00
        34         2        1.742452e-01
        35         2        9.106644e-01
        36         2       -2.231346e-01
        37         2        6.353483e-01
        38         2       -5.907084e-01
        39         2       -8.229340e-02
        40         2       -3.731438e-01
        41         2       -8.436027e-01
        42         2        1.061878e+00
        43         2       -7.830435e-02
        44         2        2.365282e-01
        45         2        2.363618e-01
        46         2       -2.776552e+00
        47         2       -2.817089e-01
        48         2       -7.079997e-01
        49         2        1.269095e+00
        50         2       -1.558745e+00
        51         2        4.927120e-03
        52         2       -4.413384e-01
        53         2       -3.683750e-01
        54         2       -7.140921e-01
        55         2       -1.260787e+00
        56         2       -1.544013e-02
        57         2       -4.762479e-01
        58         2        1.381824e+00
        59         2       -1.395979e+00
        60         2        1.308029e+00
        61         2        1.379895e+00
        62         2        1.993930e-01
        63         2        9.259242e-02
        64         2        6.552634e-01
        65         2        5.472762e-01
        66         2       -2.849143e-01
        67         2        1.667345e+00
        68         2       -1.543726e+00
        69         2       -8.166703e-01
        70         2       -1.207297e+00
        71         2       -1.085676e+00
        72         2       -3.633164e-01
        73         2       -8.038613e-01
        74         2        1.439621e+00
        75         2       -2.969811e-01
        76         2        6.562281e-01
        77         2        1.697905e+00
        78         2        6.158836e-01
        79         2       -1.064617e+00
        80         2        8.228055e-02
        81         2        2.168058e-01
        82         2       -1.050288e+00
        83         2        5.851044e-01
        84         2        2.426126e-01
        85         2        1.107978e+00
        86         2        6.907702e-01
        87         2       -1.617188e-02
        88         2       -1.943054e+00
        89         2        2.277844e+00
        90         2       -6.491869e-01
        91         2       -7.345552e-01
        92         2        6.356636e-01
        93         2       -6.452531e-01
        94         2       -4.958104e-01
        95         2       -8.210531e-01
        96         2        1.880998e+00
        97         2       -5.500805e-01
        98         2       -1.642016e+00
        99         2       -8.813288e-01
       100         2       -2.646765e-01
         1         3        2.476784e+00
         2         3       -8.026215e-02
         3         3       -3.988219e-01
         4         3       -4.011056e-01
         5         3        1.304753e-01
         6         3        3.194153e-02
         7         3       -1.179051e+00
         8         3       -2.937009e+00
         9         3       -1.753701e+00
        10         3        1.037841e+00
        11         3        1.961838e+00
        12         3       -7.341785e-01
        13         3        1.188262e+00
        14         3       -4.758314e-01
        15         3        1.159614e+00
        16         3       -3.599778e-02
        17         3       -1.196361e+00
        18         3        2.026360e-01
        19         3        2.608779e-01
        20         3       -6.955648e-01
        21         3        1.353276e-01
        22         3        1.101786e+00
        23         3       -3.208139e-02
        24         3        1.136206e+00
        25         3        3.110259e-01
        26         3       -1.400300e+00
        27         3        5.472728e-01
        28         3       -2.650141e-01
        29         3       -1.101697e-01
        30         3        2.250757e+00
        31         3        5.412726e-01
        32         3        7.681036e-02
        33         3        1.607854e-01
        34         3        6.494819e-01
        35         3        1.177816e-01
        36         3       -1.302498e+00
        37         3       -5.789129e-01
        38         3        5.163148e-01
        39         3       -9.788618e-01
        40         3       -9.518859e-01
        41         3        2.443224e-01
        42         3       -4.111643e-01
        43         3       -2.881931e-02
        44         3       -8.070747e-01
        45         3        7.822154e-01
        46         3       -1.644916e+00
        47         3        2.849928e+00
        48         3       -4.286425e-01
        49         3        1.222647e+00
        50         3        2.278887e+00
        51         3       -2.441693e+00
        52         3        9.899368e-01
        53         3        1.435211e+00
        54         3       -5.103989e-01
        55         3       -4.205549e-01
        56         3        1.480563e-01
        57         3       -3.944302e-01
        58         3        1.117161e+00
        59         3       -1.426700e+00
        60         3        1.026408e+00
        61         3        6.435297e-01
        62         3        2.958148e-01
        63         3       -7.983037e-02
        64         3       -1.558742e+00
        65         3       -1.812001e+00
        66         3        2.297490e+00
        67         3        5.422055e-01
        68         3        2.912816e-01
        69         3        3.827683e-01
        70         3        1.500351e+00
        71         3       -1.405239e-02
        72         3       -1.237125e-01
        73         3        8.481968e-01
        74         3        6.484818e-01
        75         3        6.888169e-01
        76         3       -1.832505e-01
        77         3        4.093210e-01
        78         3       -1.763446e+00
        79         3        2.939713e-01
        80         3       -7.633266e-01
        81         3        1.743916e+00
        82         3        8.967737e-02
        83         3       -7.161644e-01
        84         3       -1.656799e-01
        85         3       -6.597449e-02
        86         3        2.472871e-01
        87         3       -6.437806e-01
        88         3       -2.027689e+00
        89         3        2.313559e-01
        90         3       -9.601867e-02
        91         3       -3.914835e-01
        92         3        8.290188e-01
        93         3       -4.510214e-02
        94         3       -7.771830e-01
        95         3       -2.520981e+00
        96         3        1.903028e+00
        97         3        2.630807e-01
        98         3        9.872798e-01
        99         3       -5.128330e-01
       100         3       -5.673655e-01
         1         4       -7.330912e-01
         2         4       -1.730989e-01
         3         4       -1.015722e-01
         4         4        1.486859e+00
         5         4       -9.107896e-01
         6         4       -1.670745e-01
         7         4        1.433764e-01
         8         4        1.444544e-01
         9         4       -8.909841e-02
        10         4        1.811349e+00
        11         4        6.966891e-01
        12         4        1.901980e+00
        13         4       -1.724704e+00
        14         4       -3.453861e-01
        15         4        8.754913e-01
        16         4        1.741576e+00
        17         4        8.811874e-01
        18         4        2.398261e-02
        19         4        3.272309e-03
        20         4       -1.284978e+00
        21         4        1.831908e-01
        22         4       -3.193973e-02
        23         4       -2.459692e-02
        24         4       -6.398694e-01
        25         4       -2.249498e+00
        26         4       -1.064296e+00
        27         4       -1.779955e+00
        28         4       -1.247493e+00
        29         4        6.865351e-02
        30         4       -6.938662e-01
        31         4       -9.008974e-01
        32         4        2.742006e-01
        33         4       -1.535061e-01
        34         4        4.315870e-01
        35         4       -1.119144e+00
        36         4       -4.396973e-01
        37         4       -2.218030e+00
        38         4       -6.565397e-01
        39         4        5.184153e-01
        40         4        7.195493e-01
        41         4       -1.415044e+00
        42         4       -8.144437e-01
        43         4       -1.856271e+00
        44         4        9.149467e-01
        45         4       -6.554632e-01
        46         4        1.379696e-01
        47         4        1.934070e+00
        48         4       -5.587371e-01
        49         4        1.221092e+00
        50         4        2.045512e-01
        51         4        1.871470e-01
        52         4        1.022143e-01
        53         4       -9.443610e-01
        54         4        2.136400e-03
        55         4       -3.025023e-01
        56         4        2.024355e+00
        57         4       -2.525270e-02
        58         4       -1.084275e+00
        59         4       -6.599409e-01
        60         4        4.933474e-01
        61         4       -7.788335e-01
        62         4        7.646621e-01
        63         4        4.375038e-01
        64         4       -3.527706e-01
        65         4        6.437756e-01
        66         4       -2.298039e+00
        67         4       -3.461857e+00
        68         4       -3.405248e-01
        69         4       -2.253787e+00
        70         4        1.693288e-01
        71         4        2.163560e-01
        72         4       -3.227291e-01
        73         4        1.433794e-01
        74         4        1.088468e+00
        75         4        9.162205e-01
        76         4       -1.497801e+00
        77         4        2.103396e-01
        78         4        5.156818e-01
        79         4       -2.644241e+00
        80         4       -7.836004e-01
        81         4       -1.087550e+00
        82         4       -4.518109e-01
        83         4       -6.578795e-02
        84         4       -5.667005e-01
        85         4        5.945440e-01
        86         4        6.888603e-01
        87         4        6.478807e-01
        88         4       -1.022734e+00
        89         4       -2.837031e-01
        90         4        8.742360e-03
        91         4       -2.860341e-01
        92         4        1.422393e+00
        93         4        9.826118e-02
        94         4       -4.457969e-01
        95         4       -7.036539e-01
        96         4       -3.092676e-01
        97         4       -1.745961e+00
        98         4       -4.915220e-01
        99         4       -7.231691e-01
       100         4        1.806812e-01
         1         5        1.945138e+00
         2         5       -2.836765e-01
         3         5        5.796018e-01
         4         5        1.597728e-01
         5         5        7.912727e-01
         6         5       -6.025523e-01
         7         5        2.748216e-01
         8         5        5.070145e-01
         9         5       -1.095584e+00
        10         5        4.980770e-01
        11         5       -1.042490e-01
        12         5       -4.720025e-01
        13         5        2.651970e-01
        14         5        8.268999e-01
        15         5       -6.011541e-02
        16         5        1.164532e-01
        17         5       -1.152698e+00
        18         5       -3.606697e-01
        19         5       -1.151000e+00
        20         5       -5.294826e-01
        21         5       -6.414987e-01
        22         5        4.469396e-01
        23         5       -1.713353e+00
        24         5       -8.662621e-01
        25         5        1.607001e+00
        26         5        1.949085e-01
        27         5        5.708302e-02
        28         5        3.319198e-01
        29         5        9.975091e-01
        30         5        5.377169e-01
        31         5        3.246270e-01
        32         5        1.018107e+00
        33         5       -1.206177e+00
        34         5        3.108447e-01
        35         5       -4.585731e-01
        36         5       -1.201439e+00
        37         5       -1.264562e+00
        38         5       -9.602487e-01
        39         5       -1.114470e-01
        40         5       -8.166687e-01
        41         5        2.446727e+00
        42         5        1.064302e-01
        43         5        1.356697e+00
        44         5        1.228039e+00
        45         5        8.933803e-01
        46         5        5.446148e-01
        47         5       -2.753710e-01
        48         5        1.001254e-01
        49         5       -7.749137e-01
        50         5       -1.926355e+00
        51         5        8.098525e-01
        52         5       -5.628162e-01
        53         5        3.073320e-01
        54         5        2.286972e-01
        55         5       -9.848063e-01
        56         5       -1.776452e+00
        57         5       -8.917374e-02
        58         5       -6.530803e-01
        59         5       -6.107846e-01
        60         5        8.427509e-01
        61         5        5.277941e-01
        62         5        5.709782e-01
        63         5        2.078505e-01
        64         5       -1.281941e+00
        65         5       -2.656856e+00
        66         5       -1.451495e+00
        67         5       -1.145399e-01
        68         5        2.281080e-02
        69         5       -2.308511e-01
        70         5        7.762654e-01
        71         5       -1.093089e+00
        72         5       -9.827655e-01
        73         5       -6.341618e-01
        74         5        4.809091e-01
        75         5       -3.283750e-02
        76         5       -2.004129e-02
        77         5       -1.870418e-01
        78         5       -2.542851e-01
        79         5       -2.172089e-01
        80         5       -5.128214e-01
        81         5       -8.214259e-01
        82         5       -3.623452e-01
        83         5        7.378185e-01
        84         5        3.272162e-01
        85         5       -3.823424e-02
        86         5        1.538247e+00
        87         5       -6.084186e-01
        88         5       -7.319754e-01
        89         5       -1.052222e+00
        90         5       -3.967330e-01
        91         5        1.311121e+00
        92         5        9.379500e-01
        93         5        1.523300e+00
        94         5       -6.178234e-01
        95         5        5.588853e-01
        96         5       -1.498459e+00
        97         5        5.878128e-01
        98         5       -3.340618e-01
        99         5       -4.372965e-01
       100         5        3.155767e-02
;

param theta:=
    1       -9.837086e-01
    2        5.200061e-01
    3        6.255437e-01
    4       -1.548152e-01
    5        1.264424e-01
;
param X_true:=
    1        2.959080e+00
    2        1.275474e+00
    3        2.301981e-02
    4       -1.940028e+00
    5       -5.767013e-01
    6        1.527922e+00
    7       -1.284900e+00
    8       -1.304361e+00
    9       -3.460237e-01
   10        8.064375e-01
   11        1.338256e+00
   12        4.819838e-02
   13        1.209181e+00
   14       -5.103309e-01
   15        7.836015e-01
   16        2.833007e-01
   17       -3.346247e+00
   18        2.793829e+00
   19        6.517125e-01
   20        6.188202e-01
   21        4.190851e-04
   22        7.161501e-01
   23       -2.187131e+00
   24       -1.780560e-01
   25        1.548241e+00
   26       -3.787733e-01
   27        4.495682e-01
   28       -1.172569e+00
   29        4.106463e-01
   30        2.276834e+00
   31        2.079926e+00
   32       -1.167431e+00
   33       -1.458638e+00
   34        4.814644e-01
   35        1.315371e+00
   36       -1.248126e+00
   37        7.478804e-01
   38        1.908068e+00
   39        8.954141e-02
   40       -1.209282e+00
   41       -1.993763e+00
   42        5.966643e-01
   43        1.456245e+00
   44        9.191508e-01
   45        1.712786e+00
   46       -5.028488e+00
   47        1.108057e+00
   48        1.057434e-01
   49       -1.831698e+00
   50        7.208924e-01
   51       -3.473088e+00
   52        6.649472e-01
   53        7.651323e-01
   54       -1.248127e+00
   55       -5.637806e-01
   56        1.927432e+00
   57       -1.547672e+00
   58        1.911265e+00
   59        5.782452e-01
   60        8.248139e-01
   61        1.758823e+00
   62        9.853921e-02
   63        3.811828e-01
   64       -9.035715e-01
   65       -2.886370e+00
   66        2.454901e+00
   67        1.190873e+00
   68       -4.523879e-01
   69       -1.893532e-01
   70        2.914911e+00
   71        4.285996e-01
   72       -7.355445e-01
   73       -5.162381e-01
   74        1.752907e+00
   75        1.501467e-02
   76        3.789491e-01
   77        8.365767e-01
   78       -1.927944e+00
   79        1.032403e+00
   80        8.693109e-02
   81        1.115109e+00
   82       -1.694342e-01
   83       -4.502582e-01
   84        1.072556e+00
   85        8.598527e-01
   86        2.198949e+00
   87        4.756030e-01
   88       -1.232487e+00
   89        2.736871e+00
   90       -2.253138e+00
   91       -4.731121e-01
   92       -4.336218e-02
   93        1.187142e+00
   94       -1.468561e+00
   95       -6.312601e-01
   96        2.058746e+00
   97       -7.304417e-01
   98        6.099939e-01
   99       -1.872435e+00
  100       -8.927022e-01
;
param X:=
    1       -1.137154e+00
    2       -6.729424e-02
    3        1.196997e+00
    4        8.312138e-01
    5       -5.347855e-01
    6       -8.934746e-01
    7       -1.390060e-01
    8       -2.080357e+00
    9        2.064405e+00
   10       -2.075857e+00
   11       -1.304904e+00
   12       -8.790412e-01
   13        1.209181e+00
   14        1.776236e-01
   15        7.836015e-01
   16        2.833007e-01
   17       -9.972836e-01
   18        8.078238e-01
   19        6.517125e-01
   20       -7.553931e-01
   21       -1.276532e+00
   22       -1.653154e+00
   23        2.991722e-01
   24       -5.779468e-01
   25        1.548241e+00
   26       -3.787733e-01
   27        4.495682e-01
   28       -1.172569e+00
   29        4.106463e-01
   30       -4.997061e-01
   31        2.079926e+00
   32       -1.167431e+00
   33       -5.747630e-01
   34       -8.518814e-01
   35        2.553000e+00
   36        5.406635e-01
   37        7.478804e-01
   38        1.908068e+00
   39        8.954141e-02
   40       -1.209282e+00
   41       -1.993763e+00
   42        5.966643e-01
   43        1.456245e+00
   44       -3.405458e-01
   45       -7.081492e-01
   46       -7.971976e-01
   47        1.108057e+00
   48        1.057434e-01
   49        3.464781e-01
   50        2.895097e-01
   51       -3.473088e+00
   52       -5.194137e-01
   53        1.054250e+00
   54       -1.248127e+00
   55        6.494260e-01
   56        4.952903e-01
   57        1.648754e-01
   58       -5.965084e-01
   59       -1.114093e+00
   60        8.248139e-01
   61       -4.538379e-01
   62        2.993903e-01
   63       -4.910136e-01
   64        1.043957e+00
   65       -2.886370e+00
   66        5.326990e-01
   67       -4.065656e-01
   68       -1.875075e+00
   69       -7.745183e-01
   70        1.217963e+00
   71       -1.539094e+00
   72        6.129383e-02
   73       -1.255688e-01
   74        6.537218e-01
   75        3.132925e-01
   76        3.789491e-01
   77        8.365767e-01
   78       -3.857578e-01
   79        1.032403e+00
   80        8.693109e-02
   81       -2.961365e-01
   82        2.288845e+00
   83        5.280065e-01
   84        1.072556e+00
   85        8.598527e-01
   86       -7.817502e-01
   87        4.756030e-01
   88       -1.232487e+00
   89        2.736871e+00
   90       -2.253138e+00
   91       -4.731121e-01
   92       -2.604488e-01
   93        3.844452e-01
   94       -1.468561e+00
   95       -1.194200e+00
   96        2.058746e+00
   97       -7.304417e-01
   98        6.099939e-01
   99       -1.872435e+00
  100       -1.242118e+00
;
param outliervec:=
    1    1
    2    1
    3    1
    4    1
    5    1
    6    1
    7    1
    8    1
    9    1
   10    1
   11    1
   12    1
   13    0
   14    1
   15    0
   16    0
   17    1
   18    1
   19    0
   20    1
   21    1
   22    1
   23    1
   24    1
   25    0
   26    0
   27    0
   28    0
   29    0
   30    1
   31    0
   32    0
   33    1
   34    1
   35    1
   36    1
   37    0
   38    0
   39    0
   40    0
   41    0
   42    0
   43    0
   44    1
   45    1
   46    1
   47    0
   48    0
   49    1
   50    1
   51    0
   52    1
   53    1
   54    0
   55    1
   56    1
   57    1
   58    1
   59    1
   60    0
   61    1
   62    1
   63    1
   64    1
   65    0
   66    1
   67    1
   68    1
   69    1
   70    1
   71    1
   72    1
   73    1
   74    1
   75    1
   76    0
   77    0
   78    1
   79    0
   80    0
   81    1
   82    1
   83    1
   84    0
   85    0
   86    1
   87    0
   88    0
   89    0
   90    0
   91    0
   92    1
   93    1
   94    0
   95    1
   96    0
   97    0
   98    0
   99    0
  100    1
;